\ENCODING=ISO-8859-1
\Problem name: ilog.cplex

Minimize
 obj1: 101073 x1 + 94412 x2 + 101962 x3 + 90130 x4 + 106915 x5 + 107047 x6
       + 91335 x7 + 99477 x8 + 91047 x9 + 107239 x10 + 92363 x11 + 103661 x12
       + 102323 x13 + 102895 x14 + 107209 x15 + 103631 x16 + 100787 x17
       + 99779 x18 + 95670 x19 + 99914 x20 + 92711 x21 + 90415 x22 + 92808 x23
       + 96568 x24 + 104570 x25 + 91223 x26 + 99063 x27 + 91889 x28
       + 101418 x29 + 109767 x30 + 108305 x31 + 103754 x32 + 92836 x33
       + 109942 x34 + 94834 x35 + 93784 x36 + 107893 x37 + 94499 x38
       + 106394 x39 + 106370 x40 + 99513 x41 + 101535 x42 + 107053 x43
       + 106151 x44 + 98173 x45 + 94401 x46 + 101109 x47 + 100666 x48
       + 95041 x49 + 92917 x50 + 107898 x51 + 100675 x52 + 109050 x53
       + 105169 x54 + 100678 x55 + 100373 x56 + 95082 x57 + 93447 x58
       + 94665 x59 + 108221 x60 + 104874 x61 + 100596 x62 + 96900 x63
       + 107496 x64 + 109519 x65 + 99751 x66 + 104197 x67 + 99189 x68
       + 97859 x69 + 107549 x70 + 90637 x71 + 96377 x72 + 109021 x73
       + 102395 x74 + 101008 x75 + 109257 x76 + 92134 x77 + 94366 x78
       + 108269 x79 + 96427 x80 + 91361 x81 + 96563 x82 + 92178 x83 + 91609 x84
       + 93804 x85 + 94157 x86 + 100923 x87 + 99263 x88 + 92831 x89 + 94409 x90
       + 107957 x91 + 107380 x92 + 90047 x93 + 108643 x94 + 92168 x95
       + 91249 x96 + 105378 x97 + 105436 x98 + 91105 x99 + 98110 x100
       + 109314 x101 + 107544 x102 + 100030 x103 + 95699 x104 + 94020 x105
       + 95971 x106 + 108350 x107 + 105662 x108 + 96396 x109 + 103673 x110
       + 93729 x111 + 101093 x112 + 96954 x113 + 92252 x114 + 107362 x115
       + 109452 x116 + 97840 x117 + 90835 x118 + 94803 x119 + 91736 x120
       + 101808 x121 + 96262 x122 + 95700 x123 + 93481 x124 + 105061 x125
       + 97913 x126 + 102720 x127 + 98555 x128 + 105270 x129 + 96206 x130
       + 101755 x131 + 102825 x132 + 97823 x133 + 106324 x134 + 90088 x135
       + 102613 x136 + 95709 x137 + 96853 x138 + 104308 x139 + 96330 x140
       + 101444 x141 + 106800 x142 + 105637 x143 + 106722 x144 + 103036 x145
       + 93846 x146 + 106695 x147 + 105916 x148 + 100265 x149 + 91710 x150
       + 95146 x151 + 92755 x152 + 101787 x153 + 93706 x154 + 107360 x155
       + 107656 x156 + 91244 x157 + 90274 x158 + 96548 x159 + 94646 x160
       + 101739 x161 + 106240 x162 + 95726 x163 + 100256 x164 + 91274 x165
       + 97604 x166 + 103245 x167 + 107607 x168 + 107775 x169 + 107617 x170
       + 100073 x171 + 97839 x172 + 90872 x173 + 107433 x174 + 94375 x175
       + 91739 x176 + 98232 x177 + 104649 x178 + 93925 x179 + 91584 x180
       + 104093 x181 + 92241 x182 + 92512 x183 + 105889 x184 + 108612 x185
       + 90915 x186 + 97816 x187 + 103037 x188 + 93215 x189 + 108990 x190
       + 105053 x191 + 103714 x192 + 99343 x193 + 105676 x194 + 93298 x195
       + 106607 x196 + 95837 x197 + 95968 x198 + 109451 x199 + 107003 x200
       + 93732 x201 + 105572 x202 + 100243 x203 + 99260 x204 + 96327 x205
       + 93699 x206 + 99949 x207 + 95717 x208 + 101292 x209 + 97038 x210
       + 99529 x211 + 92919 x212 + 104112 x213 + 108424 x214 + 107518 x215
       + 102410 x216 + 91851 x217 + 90851 x218 + 107315 x219 + 92261 x220
       + 100198 x221 + 90855 x222 + 93405 x223 + 90202 x224 + 98304 x225
       + 99321 x226 + 95069 x227 + 102668 x228 + 104968 x229 + 108555 x230
       + 95183 x231 + 91174 x232 + 90512 x233 + 98556 x234 + 90355 x235
       + 91856 x236 + 90125 x237 + 95112 x238 + 107858 x239 + 104025 x240
       + 106489 x241 + 97681 x242 + 94688 x243 + 109213 x244 + 92195 x245
       + 95993 x246 + 104589 x247 + 93488 x248 + 95740 x249 + 236897 x250
       + 192264 x251 + 204784 x252 + 218314 x253 + 194884 x254 + 189667 x255
       + 195273 x256 + 188115 x257 + 189391 x258 + 206789 x259 + 219675 x260
       + 213733 x261 + 214451 x262 + 204139 x263 + 209525 x264 + 205723 x265
       + 188035 x266 + 206274 x267 + 217174 x268 + 181363 x269 + 219144 x270
       + 217705 x271 + 187590 x272 + 194781 x273 + 182822 x274 + 211730 x275
       + 194525 x276 + 193154 x277 + 216145 x278 + 207718 x279 + 189699 x280
       + 195956 x281 + 193873 x282 + 203706 x283 + 214608 x284 + 207405 x285
       + 190273 x286 + 216177 x287 + 189333 x288 + 199149 x289 + 205233 x290
       + 217689 x291 + 181147 x292 + 180922 x293 + 188139 x294 + 195559 x295
       + 187991 x296 + 211296 x297 + 192082 x298 + 201100 x299 + 173776 x300
Subject To
 c1:   - x1 + x5 - x7 - x11 - x25 - x33 + x35 - x40 - x42 - x45 + x47  = 0
 c2:   - x51 + x55 - x57 - x61 - x75 - x83 + x85 - x90 - x92 - x95 + x97  = 0
 c3:   - x101 + x105 - x107 - x111 - x125 - x133 + x135 - x140 - x142 - x145
       + x147  = 0
 c4:   - x151 + x155 - x157 - x161 - x175 - x183 + x185 - x190 - x192 - x195
       + x197  = 0
 c5:   - x201 + x205 - x207 - x211 - x225 - x233 + x235 - x240 - x242 - x245
       + x247  = 0
 c6:   - x4 + x18 - x23 - x26 - x31 + x39 + x41  = 0
 c7:   - x54 + x68 - x73 - x76 - x81 + x89 + x91  = 0
 c8:   - x104 + x118 - x123 - x126 - x131 + x139 + x141  = 0
 c9:   - x154 + x168 - x173 - x176 - x181 + x189 + x191  = -1
 c10:  - x204 + x218 - x223 - x226 - x231 + x239 + x241  = 0
 c11:  x2 - x10 + x13 + x17 - x29 + x37  = 1
 c12:  x52 - x60 + x63 + x67 - x79 + x87  = 1
 c13:  x102 - x110 + x113 + x117 - x129 + x137  = 0
 c14:  x152 - x160 + x163 + x167 - x179 + x187  = 0
 c15:  x202 - x210 + x213 + x217 - x229 + x237  = 0
 c16:  x9 + x11 + x30 + x31 - x37 - x46 - x50  = 0
 c17:  x59 + x61 + x80 + x81 - x87 - x96 - x100  = 0
 c18:  x109 + x111 + x130 + x131 - x137 - x146 - x150  = 0
 c19:  x159 + x161 + x180 + x181 - x187 - x196 - x200  = 0
 c20:  x209 + x211 + x230 + x231 - x237 - x246 - x250  = 0
 c21:  x8 + x23 - x28  = 0
 c22:  x58 + x73 - x78  = -1
 c23:  x108 + x123 - x128  = 0
 c24:  x158 + x173 - x178  = 0
 c25:  x208 + x223 - x228  = 0
 c26:  - x8 - x15 + x16 - x34 + x36 + x40 + x43 - x47 + x50  = 0
 c27:  - x58 - x65 + x66 - x84 + x86 + x90 + x93 - x97 + x100  = 0
 c28:  - x108 - x115 + x116 - x134 + x136 + x140 + x143 - x147 + x150  = 0
 c29:  - x158 - x165 + x166 - x184 + x186 + x190 + x193 - x197 + x200  = 0
 c30:  - x208 - x215 + x216 - x234 + x236 + x240 + x243 - x247 + x250  = 0
 c31:  x3 + x12 - x17 - x19 + x25 + x29 + x34 - x41  = 0
 c32:  x53 + x62 - x67 - x69 + x75 + x79 + x84 - x91  = 0
 c33:  x103 + x112 - x117 - x119 + x125 + x129 + x134 - x141  = 0
 c34:  x153 + x162 - x167 - x169 + x175 + x179 + x184 - x191  = 0
 c35:  x203 + x212 - x217 - x219 + x225 + x229 + x234 - x241  = 1
 c36:  x1 - x9 + x14 - x16 + x20 - x35 - x38  = 0
 c37:  x51 - x59 + x64 - x66 + x70 - x85 - x88  = 0
 c38:  x101 - x109 + x114 - x116 + x120 - x135 - x138  = 0
 c39:  x151 - x159 + x164 - x166 + x170 - x185 - x188  = 0
 c40:  x201 - x209 + x214 - x216 + x220 - x235 - x238  = 0
 c41:  - x3 + x4 - x6 - x14 + x19 - x21 - x32 - x43 + x46  = 0
 c42:  - x53 + x54 - x56 - x64 + x69 - x71 - x82 - x93 + x96  = 0
 c43:  - x103 + x104 - x106 - x114 + x119 - x121 - x132 - x143 + x146  = 0
 c44:  - x153 + x154 - x156 - x164 + x169 - x171 - x182 - x193 + x196  = 0
 c45:  - x203 + x204 - x206 - x214 + x219 - x221 - x232 - x243 + x246  = 0
 c46:  - x22 + x24 + x27 + x32 - x39 - x49  = 0
 c47:  - x72 + x74 + x77 + x82 - x89 - x99  = 0
 c48:  - x122 + x124 + x127 + x132 - x139 - x149  = 1
 c49:  - x172 + x174 + x177 + x182 - x189 - x199  = 0
 c50:  - x222 + x224 + x227 + x232 - x239 - x249  = 0
 c51:  x6 - x36 + x38 + x44 + x45  = 0
 c52:  x56 - x86 + x88 + x94 + x95  = 0
 c53:  x106 - x136 + x138 + x144 + x145  = -1
 c54:  x156 - x186 + x188 + x194 + x195  = 0
 c55:  x206 - x236 + x238 + x244 + x245  = 0
 c56:  - x12 - x13 - x18 + x21 + x22 - x24 + x33 - x48  = 0
 c57:  - x62 - x63 - x68 + x71 + x72 - x74 + x83 - x98  = 0
 c58:  - x112 - x113 - x118 + x121 + x122 - x124 + x133 - x148  = 0
 c59:  - x162 - x163 - x168 + x171 + x172 - x174 + x183 - x198  = 1
 c60:  - x212 - x213 - x218 + x221 + x222 - x224 + x233 - x248  = 0
 c61:  x10 - x20 - x30  = 0
 c62:  x60 - x70 - x80  = 0
 c63:  x110 - x120 - x130  = 0
 c64:  x160 - x170 - x180  = 0
 c65:  x210 - x220 - x230  = 0
 c66:  - x27 + x42 - x44 + x49  = 0
 c67:  - x77 + x92 - x94 + x99  = 0
 c68:  - x127 + x142 - x144 + x149  = 0
 c69:  - x177 + x192 - x194 + x199  = 0
 c70:  - x227 + x242 - x244 + x249  = -1
 c71:  - x2 - x5 + x7 + x15 + x26 + x28 + x48  = -1
 c72:  - x52 - x55 + x57 + x65 + x76 + x78 + x98  = 0
 c73:  - x102 - x105 + x107 + x115 + x126 + x128 + x148  = 0
 c74:  - x152 - x155 + x157 + x165 + x176 + x178 + x198  = 0
 c75:  - x202 - x205 + x207 + x215 + x226 + x228 + x248  = 0
 c76:  4 x1 + 4 x51 + 4 x101 + 4 x151 + 4 x201 - 11 x251 <= 0
 c77:  4 x2 + 4 x52 + 4 x102 + 4 x152 + 4 x202 - 10 x252 <= 0
 c78:  4 x3 + 4 x53 + 4 x103 + 4 x153 + 4 x203 - 11 x253 <= 0
 c79:  4 x4 + 4 x54 + 4 x104 + 4 x154 + 4 x204 - 10 x254 <= 0
 c80:  4 x5 + 4 x55 + 4 x105 + 4 x155 + 4 x205 - 9 x255 <= 0
 c81:  4 x6 + 4 x56 + 4 x106 + 4 x156 + 4 x206 - 10 x256 <= 0
 c82:  4 x7 + 4 x57 + 4 x107 + 4 x157 + 4 x207 - 10 x257 <= 0
 c83:  4 x8 + 4 x58 + 4 x108 + 4 x158 + 4 x208 - 11 x258 <= 0
 c84:  4 x9 + 4 x59 + 4 x109 + 4 x159 + 4 x209 - 10 x259 <= 0
 c85:  4 x10 + 4 x60 + 4 x110 + 4 x160 + 4 x210 - 10 x260 <= 0
 c86:  4 x11 + 4 x61 + 4 x111 + 4 x161 + 4 x211 - 10 x261 <= 0
 c87:  4 x12 + 4 x62 + 4 x112 + 4 x162 + 4 x212 - 10 x262 <= 0
 c88:  4 x13 + 4 x63 + 4 x113 + 4 x163 + 4 x213 - 10 x263 <= 0
 c89:  4 x14 + 4 x64 + 4 x114 + 4 x164 + 4 x214 - 9 x264 <= 0
 c90:  4 x15 + 4 x65 + 4 x115 + 4 x165 + 4 x215 - 10 x265 <= 0
 c91:  4 x16 + 4 x66 + 4 x116 + 4 x166 + 4 x216 - 10 x266 <= 0
 c92:  4 x17 + 4 x67 + 4 x117 + 4 x167 + 4 x217 - 10 x267 <= 0
 c93:  4 x18 + 4 x68 + 4 x118 + 4 x168 + 4 x218 - 10 x268 <= 0
 c94:  4 x19 + 4 x69 + 4 x119 + 4 x169 + 4 x219 - 10 x269 <= 0
 c95:  4 x20 + 4 x70 + 4 x120 + 4 x170 + 4 x220 - 10 x270 <= 0
 c96:  4 x21 + 4 x71 + 4 x121 + 4 x171 + 4 x221 - 10 x271 <= 0
 c97:  4 x22 + 4 x72 + 4 x122 + 4 x172 + 4 x222 - 10 x272 <= 0
 c98:  4 x23 + 4 x73 + 4 x123 + 4 x173 + 4 x223 - 9 x273 <= 0
 c99:  4 x24 + 4 x74 + 4 x124 + 4 x174 + 4 x224 - 10 x274 <= 0
 c100: 4 x25 + 4 x75 + 4 x125 + 4 x175 + 4 x225 - 11 x275 <= 0
 c101: 4 x26 + 4 x76 + 4 x126 + 4 x176 + 4 x226 - 9 x276 <= 0
 c102: 4 x27 + 4 x77 + 4 x127 + 4 x177 + 4 x227 - 10 x277 <= 0
 c103: 4 x28 + 4 x78 + 4 x128 + 4 x178 + 4 x228 - 10 x278 <= 0
 c104: 4 x29 + 4 x79 + 4 x129 + 4 x179 + 4 x229 - 11 x279 <= 0
 c105: 4 x30 + 4 x80 + 4 x130 + 4 x180 + 4 x230 - 9 x280 <= 0
 c106: 4 x31 + 4 x81 + 4 x131 + 4 x181 + 4 x231 - 10 x281 <= 0
 c107: 4 x32 + 4 x82 + 4 x132 + 4 x182 + 4 x232 - 9 x282 <= 0
 c108: 4 x33 + 4 x83 + 4 x133 + 4 x183 + 4 x233 - 9 x283 <= 0
 c109: 4 x34 + 4 x84 + 4 x134 + 4 x184 + 4 x234 - 11 x284 <= 0
 c110: 4 x35 + 4 x85 + 4 x135 + 4 x185 + 4 x235 - 11 x285 <= 0
 c111: 4 x36 + 4 x86 + 4 x136 + 4 x186 + 4 x236 - 10 x286 <= 0
 c112: 4 x37 + 4 x87 + 4 x137 + 4 x187 + 4 x237 - 10 x287 <= 0
 c113: 4 x38 + 4 x88 + 4 x138 + 4 x188 + 4 x238 - 9 x288 <= 0
 c114: 4 x39 + 4 x89 + 4 x139 + 4 x189 + 4 x239 - 10 x289 <= 0
 c115: 4 x40 + 4 x90 + 4 x140 + 4 x190 + 4 x240 - 10 x290 <= 0
 c116: 4 x41 + 4 x91 + 4 x141 + 4 x191 + 4 x241 - 9 x291 <= 0
 c117: 4 x42 + 4 x92 + 4 x142 + 4 x192 + 4 x242 - 10 x292 <= 0
 c118: 4 x43 + 4 x93 + 4 x143 + 4 x193 + 4 x243 - 10 x293 <= 0
 c119: 4 x44 + 4 x94 + 4 x144 + 4 x194 + 4 x244 - 10 x294 <= 0
 c120: 4 x45 + 4 x95 + 4 x145 + 4 x195 + 4 x245 - 10 x295 <= 0
 c121: 4 x46 + 4 x96 + 4 x146 + 4 x196 + 4 x246 - 9 x296 <= 0
 c122: 4 x47 + 4 x97 + 4 x147 + 4 x197 + 4 x247 - 10 x297 <= 0
 c123: 4 x48 + 4 x98 + 4 x148 + 4 x198 + 4 x248 - 10 x298 <= 0
 c124: 4 x49 + 4 x99 + 4 x149 + 4 x199 + 4 x249 - 9 x299 <= 0
 c125: 4 x50 + 4 x100 + 4 x150 + 4 x200 + 4 x250 - 14 x300 <= 0
Bounds
 0 <= x1 <= 1
 0 <= x2 <= 1
 0 <= x3 <= 1
 0 <= x4 <= 1
 0 <= x5 <= 1
 0 <= x6 <= 1
 0 <= x7 <= 1
 0 <= x8 <= 1
 0 <= x9 <= 1
 0 <= x10 <= 1
 0 <= x11 <= 1
 0 <= x12 <= 1
 0 <= x13 <= 1
 0 <= x14 <= 1
 0 <= x15 <= 1
 0 <= x16 <= 1
 0 <= x17 <= 1
 0 <= x18 <= 1
 0 <= x19 <= 1
 0 <= x20 <= 1
 0 <= x21 <= 1
 0 <= x22 <= 1
 0 <= x23 <= 1
 0 <= x24 <= 1
 0 <= x25 <= 1
 0 <= x26 <= 1
 0 <= x27 <= 1
 0 <= x28 <= 1
 0 <= x29 <= 1
 0 <= x30 <= 1
 0 <= x31 <= 1
 0 <= x32 <= 1
 0 <= x33 <= 1
 0 <= x34 <= 1
 0 <= x35 <= 1
 0 <= x36 <= 1
 0 <= x37 <= 1
 0 <= x38 <= 1
 0 <= x39 <= 1
 0 <= x40 <= 1
 0 <= x41 <= 1
 0 <= x42 <= 1
 0 <= x43 <= 1
 0 <= x44 <= 1
 0 <= x45 <= 1
 0 <= x46 <= 1
 0 <= x47 <= 1
 0 <= x48 <= 1
 0 <= x49 <= 1
 0 <= x50 <= 1
 0 <= x51 <= 1
 0 <= x52 <= 1
 0 <= x53 <= 1
 0 <= x54 <= 1
 0 <= x55 <= 1
 0 <= x56 <= 1
 0 <= x57 <= 1
 0 <= x58 <= 1
 0 <= x59 <= 1
 0 <= x60 <= 1
 0 <= x61 <= 1
 0 <= x62 <= 1
 0 <= x63 <= 1
 0 <= x64 <= 1
 0 <= x65 <= 1
 0 <= x66 <= 1
 0 <= x67 <= 1
 0 <= x68 <= 1
 0 <= x69 <= 1
 0 <= x70 <= 1
 0 <= x71 <= 1
 0 <= x72 <= 1
 0 <= x73 <= 1
 0 <= x74 <= 1
 0 <= x75 <= 1
 0 <= x76 <= 1
 0 <= x77 <= 1
 0 <= x78 <= 1
 0 <= x79 <= 1
 0 <= x80 <= 1
 0 <= x81 <= 1
 0 <= x82 <= 1
 0 <= x83 <= 1
 0 <= x84 <= 1
 0 <= x85 <= 1
 0 <= x86 <= 1
 0 <= x87 <= 1
 0 <= x88 <= 1
 0 <= x89 <= 1
 0 <= x90 <= 1
 0 <= x91 <= 1
 0 <= x92 <= 1
 0 <= x93 <= 1
 0 <= x94 <= 1
 0 <= x95 <= 1
 0 <= x96 <= 1
 0 <= x97 <= 1
 0 <= x98 <= 1
 0 <= x99 <= 1
 0 <= x100 <= 1
 0 <= x101 <= 1
 0 <= x102 <= 1
 0 <= x103 <= 1
 0 <= x104 <= 1
 0 <= x105 <= 1
 0 <= x106 <= 1
 0 <= x107 <= 1
 0 <= x108 <= 1
 0 <= x109 <= 1
 0 <= x110 <= 1
 0 <= x111 <= 1
 0 <= x112 <= 1
 0 <= x113 <= 1
 0 <= x114 <= 1
 0 <= x115 <= 1
 0 <= x116 <= 1
 0 <= x117 <= 1
 0 <= x118 <= 1
 0 <= x119 <= 1
 0 <= x120 <= 1
 0 <= x121 <= 1
 0 <= x122 <= 1
 0 <= x123 <= 1
 0 <= x124 <= 1
 0 <= x125 <= 1
 0 <= x126 <= 1
 0 <= x127 <= 1
 0 <= x128 <= 1
 0 <= x129 <= 1
 0 <= x130 <= 1
 0 <= x131 <= 1
 0 <= x132 <= 1
 0 <= x133 <= 1
 0 <= x134 <= 1
 0 <= x135 <= 1
 0 <= x136 <= 1
 0 <= x137 <= 1
 0 <= x138 <= 1
 0 <= x139 <= 1
 0 <= x140 <= 1
 0 <= x141 <= 1
 0 <= x142 <= 1
 0 <= x143 <= 1
 0 <= x144 <= 1
 0 <= x145 <= 1
 0 <= x146 <= 1
 0 <= x147 <= 1
 0 <= x148 <= 1
 0 <= x149 <= 1
 0 <= x150 <= 1
 0 <= x151 <= 1
 0 <= x152 <= 1
 0 <= x153 <= 1
 0 <= x154 <= 1
 0 <= x155 <= 1
 0 <= x156 <= 1
 0 <= x157 <= 1
 0 <= x158 <= 1
 0 <= x159 <= 1
 0 <= x160 <= 1
 0 <= x161 <= 1
 0 <= x162 <= 1
 0 <= x163 <= 1
 0 <= x164 <= 1
 0 <= x165 <= 1
 0 <= x166 <= 1
 0 <= x167 <= 1
 0 <= x168 <= 1
 0 <= x169 <= 1
 0 <= x170 <= 1
 0 <= x171 <= 1
 0 <= x172 <= 1
 0 <= x173 <= 1
 0 <= x174 <= 1
 0 <= x175 <= 1
 0 <= x176 <= 1
 0 <= x177 <= 1
 0 <= x178 <= 1
 0 <= x179 <= 1
 0 <= x180 <= 1
 0 <= x181 <= 1
 0 <= x182 <= 1
 0 <= x183 <= 1
 0 <= x184 <= 1
 0 <= x185 <= 1
 0 <= x186 <= 1
 0 <= x187 <= 1
 0 <= x188 <= 1
 0 <= x189 <= 1
 0 <= x190 <= 1
 0 <= x191 <= 1
 0 <= x192 <= 1
 0 <= x193 <= 1
 0 <= x194 <= 1
 0 <= x195 <= 1
 0 <= x196 <= 1
 0 <= x197 <= 1
 0 <= x198 <= 1
 0 <= x199 <= 1
 0 <= x200 <= 1
 0 <= x201 <= 1
 0 <= x202 <= 1
 0 <= x203 <= 1
 0 <= x204 <= 1
 0 <= x205 <= 1
 0 <= x206 <= 1
 0 <= x207 <= 1
 0 <= x208 <= 1
 0 <= x209 <= 1
 0 <= x210 <= 1
 0 <= x211 <= 1
 0 <= x212 <= 1
 0 <= x213 <= 1
 0 <= x214 <= 1
 0 <= x215 <= 1
 0 <= x216 <= 1
 0 <= x217 <= 1
 0 <= x218 <= 1
 0 <= x219 <= 1
 0 <= x220 <= 1
 0 <= x221 <= 1
 0 <= x222 <= 1
 0 <= x223 <= 1
 0 <= x224 <= 1
 0 <= x225 <= 1
 0 <= x226 <= 1
 0 <= x227 <= 1
 0 <= x228 <= 1
 0 <= x229 <= 1
 0 <= x230 <= 1
 0 <= x231 <= 1
 0 <= x232 <= 1
 0 <= x233 <= 1
 0 <= x234 <= 1
 0 <= x235 <= 1
 0 <= x236 <= 1
 0 <= x237 <= 1
 0 <= x238 <= 1
 0 <= x239 <= 1
 0 <= x240 <= 1
 0 <= x241 <= 1
 0 <= x242 <= 1
 0 <= x243 <= 1
 0 <= x244 <= 1
 0 <= x245 <= 1
 0 <= x246 <= 1
 0 <= x247 <= 1
 0 <= x248 <= 1
 0 <= x249 <= 1
 0 <= x250 <= 1
 0 <= x251 <= 1
 0 <= x252 <= 1
 0 <= x253 <= 1
 0 <= x254 <= 1
 0 <= x255 <= 1
 0 <= x256 <= 1
 0 <= x257 <= 1
 0 <= x258 <= 1
 0 <= x259 <= 1
 0 <= x260 <= 1
 0 <= x261 <= 1
 0 <= x262 <= 1
 0 <= x263 <= 1
 0 <= x264 <= 1
 0 <= x265 <= 1
 0 <= x266 <= 1
 0 <= x267 <= 1
 0 <= x268 <= 1
 0 <= x269 <= 1
 0 <= x270 <= 1
 0 <= x271 <= 1
 0 <= x272 <= 1
 0 <= x273 <= 1
 0 <= x274 <= 1
 0 <= x275 <= 1
 0 <= x276 <= 1
 0 <= x277 <= 1
 0 <= x278 <= 1
 0 <= x279 <= 1
 0 <= x280 <= 1
 0 <= x281 <= 1
 0 <= x282 <= 1
 0 <= x283 <= 1
 0 <= x284 <= 1
 0 <= x285 <= 1
 0 <= x286 <= 1
 0 <= x287 <= 1
 0 <= x288 <= 1
 0 <= x289 <= 1
 0 <= x290 <= 1
 0 <= x291 <= 1
 0 <= x292 <= 1
 0 <= x293 <= 1
 0 <= x294 <= 1
 0 <= x295 <= 1
 0 <= x296 <= 1
 0 <= x297 <= 1
 0 <= x298 <= 1
 0 <= x299 <= 1
 0 <= x300 <= 1
Binaries
 x251  x252  x253  x254  x255  x256  x257  x258  x259  x260  x261  x262  x263 
 x264  x265  x266  x267  x268  x269  x270  x271  x272  x273  x274  x275  x276 
 x277  x278  x279  x280  x281  x282  x283  x284  x285  x286  x287  x288  x289 
 x290  x291  x292  x293  x294  x295  x296  x297  x298  x299  x300 
End
